
Gurobi 11.0.3 (linux64) logging started Thu Nov 21 19:42:51 2024

Set parameter LogFile to value "/home/yihong/Coding/OR_SUC/SUC_results_bigM100000_thread4/case24_ieee_rts_theta0.1_epsilon0.025_gurobi_seed290000_num_gen100_N_WDR100_load_scaling_factor1_proposed_T16quadra_cost.txt"
Set parameter TimeLimit to value 3600
Gurobi Optimizer version 11.0.3 build v11.0.3rc0 (linux64 - "Ubuntu 20.04.6 LTS")

CPU model: AMD EPYC 7532 32-Core Processor, instruction set [SSE2|AVX|AVX2]
Thread count: 64 physical cores, 128 logical processors, using up to 4 threads

Optimize a model with 34462 rows, 19941 columns and 471930 nonzeros
Model fingerprint: 0x1a7b667e
Model has 1600 quadratic constraints
Variable types: 18341 continuous, 1600 integer (1600 binary)
Coefficient statistics:
  Matrix range     [3e-04, 2e+03]
  QMatrix range    [2e-03, 8e-03]
  QLMatrix range   [2e-01, 6e+01]
  Objective range  [1e+00, 1e+00]
  Bounds range     [1e+00, 1e+00]
  RHS range        [1e+00, 9e+03]
Presolve removed 27951 rows and 8674 columns
Presolve time: 0.17s
Presolved: 6511 rows, 11267 columns, 42489 nonzeros
Presolved model has 1600 quadratic constraint(s)
Variable types: 9667 continuous, 1600 integer (1600 binary)

Root relaxation: objective 2.577554e+04, 5037 iterations, 0.15 seconds (0.15 work units)

    Nodes    |    Current Node    |     Objective Bounds      |     Work
 Expl Unexpl |  Obj  Depth IntInf | Incumbent    BestBd   Gap | It/Node Time

     0     0 25775.5378    0   16          - 25775.5378      -     -    0s
     0     0 241202.132    0  485          - 241202.132      -     -    0s
     0     0 433459.979    0  406          - 433459.979      -     -    0s
     0     0 433476.120    0  230          - 433476.120      -     -    0s
     0     0 433606.001    0  175          - 433606.001      -     -    0s
     0     0 433608.174    0  175          - 433608.174      -     -    1s
     0     0 433608.174    0  171          - 433608.174      -     -    1s
     0     0 433608.174    0  171          - 433608.174      -     -    1s
     0     2 433608.174    0  171          - 433608.174      -     -    2s
H  283   257                    433758.04339 433616.168  0.03%  17.9    3s
*  283   257             100    433758.04339 433616.168  0.03%  18.0    3s

Cutting planes:
  Gomory: 2
  Implied bound: 298
  MIR: 71
  Flow cover: 77

Explored 290 nodes (18964 simplex iterations) in 4.37 seconds (5.65 work units)
Thread count was 4 (of 128 available processors)

Solution count 2: 433758 433758 

Optimal solution found (tolerance 1.00e-03)
Warning: max constraint violation (1.7492e-07) exceeds tolerance
Best objective 4.337580433868e+05, best bound 4.336161676367e+05, gap 0.0327%
